p cnf 528 1845
-33 1 0
-33 2 0
-34 1 0
-34 3 0
-35 1 0
-35 4 0
-36 1 0
-36 5 0
-37 1 0
-37 6 0
-38 1 0
-38 7 0
-39 1 0
-39 8 0
-40 1 0
-40 9 0
-41 1 0
-41 10 0
-42 1 0
-42 11 0
-43 1 0
-43 12 0
-44 1 0
-44 13 0
-45 1 0
-45 14 0
-46 1 0
-46 15 0
-47 1 0
-47 16 0
-48 1 0
-48 17 0
-49 1 0
-49 18 0
-50 1 0
-50 19 0
-51 1 0
-51 20 0
-52 1 0
-52 21 0
-53 1 0
-53 22 0
-54 1 0
-54 23 0
-55 1 0
-55 24 0
-56 1 0
-56 25 0
-57 1 0
-57 26 0
-58 1 0
-58 27 0
-59 1 0
-59 28 0
-60 1 0
-60 29 0
-61 1 0
-61 30 0
-62 1 0
-62 31 0
-63 1 0
-63 32 0
-64 2 0
-64 3 0
-65 2 0
-65 4 0
-66 2 0
-66 5 0
-67 2 0
-67 6 0
-68 2 0
-68 7 0
-69 2 0
-69 8 0
-70 2 0
-70 9 0
-71 2 0
-71 10 0
-72 2 0
-72 11 0
-73 2 0
-73 12 0
-74 2 0
-74 13 0
-75 2 0
-75 14 0
-76 2 0
-76 15 0
-77 2 0
-77 16 0
-78 2 0
-78 17 0
-79 2 0
-79 18 0
-80 2 0
-80 19 0
-81 2 0
-81 20 0
-82 2 0
-82 21 0
-83 2 0
-83 22 0
-84 2 0
-84 23 0
-85 2 0
-85 24 0
-86 2 0
-86 25 0
-87 2 0
-87 26 0
-88 2 0
-88 27 0
-89 2 0
-89 28 0
-90 2 0
-90 29 0
-91 2 0
-91 30 0
-92 2 0
-92 31 0
-93 2 0
-93 32 0
-94 3 0
-94 4 0
-95 3 0
-95 5 0
-96 3 0
-96 6 0
-97 3 0
-97 7 0
-98 3 0
-98 8 0
-99 3 0
-99 9 0
-100 3 0
-100 10 0
-101 3 0
-101 11 0
-102 3 0
-102 12 0
-103 3 0
-103 13 0
-104 3 0
-104 14 0
-105 3 0
-105 15 0
-106 3 0
-106 16 0
-107 3 0
-107 17 0
-108 3 0
-108 18 0
-109 3 0
-109 19 0
-110 3 0
-110 20 0
-111 3 0
-111 21 0
-112 3 0
-112 22 0
-113 3 0
-113 23 0
-114 3 0
-114 24 0
-115 3 0
-115 25 0
-116 3 0
-116 26 0
-117 3 0
-117 27 0
-118 3 0
-118 28 0
-119 3 0
-119 29 0
-120 3 0
-120 30 0
-121 3 0
-121 31 0
-122 3 0
-122 32 0
-123 4 0
-123 5 0
-124 4 0
-124 6 0
-125 4 0
-125 7 0
-126 4 0
-126 8 0
-127 4 0
-127 9 0
-128 4 0
-128 10 0
-129 4 0
-129 11 0
-130 4 0
-130 12 0
-131 4 0
-131 13 0
-132 4 0
-132 14 0
-133 4 0
-133 15 0
-134 4 0
-134 16 0
-135 4 0
-135 17 0
-136 4 0
-136 18 0
-137 4 0
-137 19 0
-138 4 0
-138 20 0
-139 4 0
-139 21 0
-140 4 0
-140 22 0
-141 4 0
-141 23 0
-142 4 0
-142 24 0
-143 4 0
-143 25 0
-144 4 0
-144 26 0
-145 4 0
-145 27 0
-146 4 0
-146 28 0
-147 4 0
-147 29 0
-148 4 0
-148 30 0
-149 4 0
-149 31 0
-150 4 0
-150 32 0
-151 5 0
-151 6 0
-152 5 0
-152 7 0
-153 5 0
-153 8 0
-154 5 0
-154 9 0
-155 5 0
-155 10 0
-156 5 0
-156 11 0
-157 5 0
-157 12 0
-158 5 0
-158 13 0
-159 5 0
-159 14 0
-160 5 0
-160 15 0
-161 5 0
-161 16 0
-162 5 0
-162 17 0
-163 5 0
-163 18 0
-164 5 0
-164 19 0
-165 5 0
-165 20 0
-166 5 0
-166 21 0
-167 5 0
-167 22 0
-168 5 0
-168 23 0
-169 5 0
-169 24 0
-170 5 0
-170 25 0
-171 5 0
-171 26 0
-172 5 0
-172 27 0
-173 5 0
-173 28 0
-174 5 0
-174 29 0
-175 5 0
-175 30 0
-176 5 0
-176 31 0
-177 5 0
-177 32 0
-178 6 0
-178 7 0
-179 6 0
-179 8 0
-180 6 0
-180 9 0
-181 6 0
-181 10 0
-182 6 0
-182 11 0
-183 6 0
-183 12 0
-184 6 0
-184 13 0
-185 6 0
-185 14 0
-186 6 0
-186 15 0
-187 6 0
-187 16 0
-188 6 0
-188 17 0
-189 6 0
-189 18 0
-190 6 0
-190 19 0
-191 6 0
-191 20 0
-192 6 0
-192 21 0
-193 6 0
-193 22 0
-194 6 0
-194 23 0
-195 6 0
-195 24 0
-196 6 0
-196 25 0
-197 6 0
-197 26 0
-198 6 0
-198 27 0
-199 6 0
-199 28 0
-200 6 0
-200 29 0
-201 6 0
-201 30 0
-202 6 0
-202 31 0
-203 6 0
-203 32 0
-204 7 0
-204 8 0
-205 7 0
-205 9 0
-206 7 0
-206 10 0
-207 7 0
-207 11 0
-208 7 0
-208 12 0
-209 7 0
-209 13 0
-210 7 0
-210 14 0
-211 7 0
-211 15 0
-212 7 0
-212 16 0
-213 7 0
-213 17 0
-214 7 0
-214 18 0
-215 7 0
-215 19 0
-216 7 0
-216 20 0
-217 7 0
-217 21 0
-218 7 0
-218 22 0
-219 7 0
-219 23 0
-220 7 0
-220 24 0
-221 7 0
-221 25 0
-222 7 0
-222 26 0
-223 7 0
-223 27 0
-224 7 0
-224 28 0
-225 7 0
-225 29 0
-226 7 0
-226 30 0
-227 7 0
-227 31 0
-228 7 0
-228 32 0
-229 8 0
-229 9 0
-230 8 0
-230 10 0
-231 8 0
-231 11 0
-232 8 0
-232 12 0
-233 8 0
-233 13 0
-234 8 0
-234 14 0
-235 8 0
-235 15 0
-236 8 0
-236 16 0
-237 8 0
-237 17 0
-238 8 0
-238 18 0
-239 8 0
-239 19 0
-240 8 0
-240 20 0
-241 8 0
-241 21 0
-242 8 0
-242 22 0
-243 8 0
-243 23 0
-244 8 0
-244 24 0
-245 8 0
-245 25 0
-246 8 0
-246 26 0
-247 8 0
-247 27 0
-248 8 0
-248 28 0
-249 8 0
-249 29 0
-250 8 0
-250 30 0
-251 8 0
-251 31 0
-252 8 0
-252 32 0
-253 9 0
-253 10 0
-254 9 0
-254 11 0
-255 9 0
-255 12 0
-256 9 0
-256 13 0
-257 9 0
-257 14 0
-258 9 0
-258 15 0
-259 9 0
-259 16 0
-260 9 0
-260 17 0
-261 9 0
-261 18 0
-262 9 0
-262 19 0
-263 9 0
-263 20 0
-264 9 0
-264 21 0
-265 9 0
-265 22 0
-266 9 0
-266 23 0
-267 9 0
-267 24 0
-268 9 0
-268 25 0
-269 9 0
-269 26 0
-270 9 0
-270 27 0
-271 9 0
-271 28 0
-272 9 0
-272 29 0
-273 9 0
-273 30 0
-274 9 0
-274 31 0
-275 9 0
-275 32 0
-276 10 0
-276 11 0
-277 10 0
-277 12 0
-278 10 0
-278 13 0
-279 10 0
-279 14 0
-280 10 0
-280 15 0
-281 10 0
-281 16 0
-282 10 0
-282 17 0
-283 10 0
-283 18 0
-284 10 0
-284 19 0
-285 10 0
-285 20 0
-286 10 0
-286 21 0
-287 10 0
-287 22 0
-288 10 0
-288 23 0
-289 10 0
-289 24 0
-290 10 0
-290 25 0
-291 10 0
-291 26 0
-292 10 0
-292 27 0
-293 10 0
-293 28 0
-294 10 0
-294 29 0
-295 10 0
-295 30 0
-296 10 0
-296 31 0
-297 10 0
-297 32 0
-298 11 0
-298 12 0
-299 11 0
-299 13 0
-300 11 0
-300 14 0
-301 11 0
-301 15 0
-302 11 0
-302 16 0
-303 11 0
-303 17 0
-304 11 0
-304 18 0
-305 11 0
-305 19 0
-306 11 0
-306 20 0
-307 11 0
-307 21 0
-308 11 0
-308 22 0
-309 11 0
-309 23 0
-310 11 0
-310 24 0
-311 11 0
-311 25 0
-312 11 0
-312 26 0
-313 11 0
-313 27 0
-314 11 0
-314 28 0
-315 11 0
-315 29 0
-316 11 0
-316 30 0
-317 11 0
-317 31 0
-318 11 0
-318 32 0
-319 12 0
-319 13 0
-320 12 0
-320 14 0
-321 12 0
-321 15 0
-322 12 0
-322 16 0
-323 12 0
-323 17 0
-324 12 0
-324 18 0
-325 12 0
-325 19 0
-326 12 0
-326 20 0
-327 12 0
-327 21 0
-328 12 0
-328 22 0
-329 12 0
-329 23 0
-330 12 0
-330 24 0
-331 12 0
-331 25 0
-332 12 0
-332 26 0
-333 12 0
-333 27 0
-334 12 0
-334 28 0
-335 12 0
-335 29 0
-336 12 0
-336 30 0
-337 12 0
-337 31 0
-338 12 0
-338 32 0
-339 13 0
-339 14 0
-340 13 0
-340 15 0
-341 13 0
-341 16 0
-342 13 0
-342 17 0
-343 13 0
-343 18 0
-344 13 0
-344 19 0
-345 13 0
-345 20 0
-346 13 0
-346 21 0
-347 13 0
-347 22 0
-348 13 0
-348 23 0
-349 13 0
-349 24 0
-350 13 0
-350 25 0
-351 13 0
-351 26 0
-352 13 0
-352 27 0
-353 13 0
-353 28 0
-354 13 0
-354 29 0
-355 13 0
-355 30 0
-356 13 0
-356 31 0
-357 13 0
-357 32 0
-358 14 0
-358 15 0
-359 14 0
-359 16 0
-360 14 0
-360 17 0
-361 14 0
-361 18 0
-362 14 0
-362 19 0
-363 14 0
-363 20 0
-364 14 0
-364 21 0
-365 14 0
-365 22 0
-366 14 0
-366 23 0
-367 14 0
-367 24 0
-368 14 0
-368 25 0
-369 14 0
-369 26 0
-370 14 0
-370 27 0
-371 14 0
-371 28 0
-372 14 0
-372 29 0
-373 14 0
-373 30 0
-374 14 0
-374 31 0
-375 14 0
-375 32 0
-376 15 0
-376 16 0
-377 15 0
-377 17 0
-378 15 0
-378 18 0
-379 15 0
-379 19 0
-380 15 0
-380 20 0
-381 15 0
-381 21 0
-382 15 0
-382 22 0
-383 15 0
-383 23 0
-384 15 0
-384 24 0
-385 15 0
-385 25 0
-386 15 0
-386 26 0
-387 15 0
-387 27 0
-388 15 0
-388 28 0
-389 15 0
-389 29 0
-390 15 0
-390 30 0
-391 15 0
-391 31 0
-392 15 0
-392 32 0
-393 16 0
-393 17 0
-394 16 0
-394 18 0
-395 16 0
-395 19 0
-396 16 0
-396 20 0
-397 16 0
-397 21 0
-398 16 0
-398 22 0
-399 16 0
-399 23 0
-400 16 0
-400 24 0
-401 16 0
-401 25 0
-402 16 0
-402 26 0
-403 16 0
-403 27 0
-404 16 0
-404 28 0
-405 16 0
-405 29 0
-406 16 0
-406 30 0
-407 16 0
-407 31 0
-408 16 0
-408 32 0
-409 17 0
-409 18 0
-410 17 0
-410 19 0
-411 17 0
-411 20 0
-412 17 0
-412 21 0
-413 17 0
-413 22 0
-414 17 0
-414 23 0
-415 17 0
-415 24 0
-416 17 0
-416 25 0
-417 17 0
-417 26 0
-418 17 0
-418 27 0
-419 17 0
-419 28 0
-420 17 0
-420 29 0
-421 17 0
-421 30 0
-422 17 0
-422 31 0
-423 17 0
-423 32 0
-424 18 0
-424 19 0
-425 18 0
-425 20 0
-426 18 0
-426 21 0
-427 18 0
-427 22 0
-428 18 0
-428 23 0
-429 18 0
-429 24 0
-430 18 0
-430 25 0
-431 18 0
-431 26 0
-432 18 0
-432 27 0
-433 18 0
-433 28 0
-434 18 0
-434 29 0
-435 18 0
-435 30 0
-436 18 0
-436 31 0
-437 18 0
-437 32 0
-438 19 0
-438 20 0
-439 19 0
-439 21 0
-440 19 0
-440 22 0
-441 19 0
-441 23 0
-442 19 0
-442 24 0
-443 19 0
-443 25 0
-444 19 0
-444 26 0
-445 19 0
-445 27 0
-446 19 0
-446 28 0
-447 19 0
-447 29 0
-448 19 0
-448 30 0
-449 19 0
-449 31 0
-450 19 0
-450 32 0
-451 20 0
-451 21 0
-452 20 0
-452 22 0
-453 20 0
-453 23 0
-454 20 0
-454 24 0
-455 20 0
-455 25 0
-456 20 0
-456 26 0
-457 20 0
-457 27 0
-458 20 0
-458 28 0
-459 20 0
-459 29 0
-460 20 0
-460 30 0
-461 20 0
-461 31 0
-462 20 0
-462 32 0
-463 21 0
-463 22 0
-464 21 0
-464 23 0
-465 21 0
-465 24 0
-466 21 0
-466 25 0
-467 21 0
-467 26 0
-468 21 0
-468 27 0
-469 21 0
-469 28 0
-470 21 0
-470 29 0
-471 21 0
-471 30 0
-472 21 0
-472 31 0
-473 21 0
-473 32 0
-474 22 0
-474 23 0
-475 22 0
-475 24 0
-476 22 0
-476 25 0
-477 22 0
-477 26 0
-478 22 0
-478 27 0
-479 22 0
-479 28 0
-480 22 0
-480 29 0
-481 22 0
-481 30 0
-482 22 0
-482 31 0
-483 22 0
-483 32 0
-484 23 0
-484 24 0
-485 23 0
-485 25 0
-486 23 0
-486 26 0
-487 23 0
-487 27 0
-488 23 0
-488 28 0
-489 23 0
-489 29 0
-490 23 0
-490 30 0
-491 23 0
-491 31 0
-492 23 0
-492 32 0
-493 24 0
-493 25 0
-494 24 0
-494 26 0
-495 24 0
-495 27 0
-496 24 0
-496 28 0
-497 24 0
-497 29 0
-498 24 0
-498 30 0
-499 24 0
-499 31 0
-500 24 0
-500 32 0
-501 25 0
-501 26 0
-502 25 0
-502 27 0
-503 25 0
-503 28 0
-504 25 0
-504 29 0
-505 25 0
-505 30 0
-506 25 0
-506 31 0
-507 25 0
-507 32 0
-508 26 0
-508 27 0
-509 26 0
-509 28 0
-510 26 0
-510 29 0
-511 26 0
-511 30 0
-512 26 0
-512 31 0
-513 26 0
-513 32 0
-514 27 0
-514 28 0
-515 27 0
-515 29 0
-516 27 0
-516 30 0
-517 27 0
-517 31 0
-518 27 0
-518 32 0
-519 28 0
-519 29 0
-520 28 0
-520 30 0
-521 28 0
-521 31 0
-522 28 0
-522 32 0
-523 29 0
-523 30 0
-524 29 0
-524 31 0
-525 29 0
-525 32 0
-526 30 0
-526 31 0
-527 30 0
-527 32 0
-528 31 0
-528 32 0
-35 0
-37 0
-38 0
-39 0
-41 0
-42 0
-43 0
-44 0
-45 0
-46 0
-47 0
-49 0
-50 0
-51 0
-52 0
-53 0
-54 0
-55 0
-56 0
-57 0
-58 0
-59 0
-60 0
-61 0
-62 0
-63 0
-64 0
-66 0
-68 0
-69 0
-70 0
-72 0
-73 0
-74 0
-75 0
-76 0
-77 0
-78 0
-80 0
-81 0
-82 0
-83 0
-84 0
-85 0
-86 0
-87 0
-88 0
-89 0
-90 0
-91 0
-92 0
-93 0
-95 0
-96 0
-98 0
-99 0
-100 0
-102 0
-103 0
-104 0
-105 0
-106 0
-107 0
-108 0
-110 0
-111 0
-112 0
-113 0
-114 0
-115 0
-116 0
-117 0
-118 0
-119 0
-120 0
-121 0
-122 0
-123 0
-124 0
-125 0
-127 0
-128 0
-129 0
-131 0
-132 0
-133 0
-134 0
-135 0
-136 0
-137 0
-139 0
-140 0
-141 0
-142 0
-143 0
-144 0
-145 0
-146 0
-147 0
-148 0
-149 0
-150 0
-153 0
-154 0
-155 0
-156 0
-157 0
-159 0
-160 0
-161 0
-162 0
-163 0
-164 0
-165 0
-167 0
-168 0
-169 0
-170 0
-171 0
-172 0
-173 0
-174 0
-175 0
-176 0
-177 0
-178 0
-180 0
-181 0
-182 0
-183 0
-184 0
-186 0
-187 0
-188 0
-189 0
-190 0
-191 0
-192 0
-194 0
-195 0
-196 0
-197 0
-198 0
-199 0
-200 0
-201 0
-202 0
-203 0
-205 0
-206 0
-207 0
-208 0
-209 0
-210 0
-212 0
-213 0
-214 0
-215 0
-216 0
-217 0
-218 0
-220 0
-221 0
-222 0
-223 0
-224 0
-225 0
-226 0
-227 0
-228 0
-229 0
-230 0
-231 0
-232 0
-233 0
-234 0
-235 0
-237 0
-238 0
-239 0
-240 0
-241 0
-242 0
-243 0
-245 0
-246 0
-247 0
-248 0
-249 0
-250 0
-251 0
-252 0
-255 0
-257 0
-258 0
-259 0
-260 0
-261 0
-262 0
-263 0
-264 0
-265 0
-266 0
-267 0
-269 0
-270 0
-271 0
-272 0
-273 0
-274 0
-275 0
-276 0
-278 0
-280 0
-281 0
-282 0
-283 0
-284 0
-285 0
-286 0
-287 0
-288 0
-289 0
-290 0
-292 0
-293 0
-294 0
-295 0
-296 0
-297 0
-299 0
-300 0
-302 0
-303 0
-304 0
-305 0
-306 0
-307 0
-308 0
-309 0
-310 0
-311 0
-312 0
-314 0
-315 0
-316 0
-317 0
-318 0
-319 0
-320 0
-321 0
-323 0
-324 0
-325 0
-326 0
-327 0
-328 0
-329 0
-330 0
-331 0
-332 0
-333 0
-335 0
-336 0
-337 0
-338 0
-341 0
-342 0
-343 0
-344 0
-345 0
-346 0
-347 0
-348 0
-349 0
-350 0
-351 0
-352 0
-353 0
-355 0
-356 0
-357 0
-358 0
-360 0
-361 0
-362 0
-363 0
-364 0
-365 0
-366 0
-367 0
-368 0
-369 0
-370 0
-371 0
-372 0
-374 0
-375 0
-377 0
-378 0
-379 0
-380 0
-381 0
-382 0
-383 0
-384 0
-385 0
-386 0
-387 0
-388 0
-389 0
-390 0
-392 0
-393 0
-394 0
-395 0
-396 0
-397 0
-398 0
-399 0
-400 0
-401 0
-402 0
-403 0
-404 0
-405 0
-406 0
-407 0
-411 0
-413 0
-414 0
-415 0
-417 0
-418 0
-419 0
-420 0
-421 0
-422 0
-423 0
-424 0
-426 0
-428 0
-429 0
-430 0
-432 0
-433 0
-434 0
-435 0
-436 0
-437 0
-439 0
-440 0
-442 0
-443 0
-444 0
-446 0
-447 0
-448 0
-449 0
-450 0
-451 0
-452 0
-453 0
-455 0
-456 0
-457 0
-459 0
-460 0
-461 0
-462 0
-465 0
-466 0
-467 0
-468 0
-469 0
-471 0
-472 0
-473 0
-474 0
-476 0
-477 0
-478 0
-479 0
-480 0
-482 0
-483 0
-485 0
-486 0
-487 0
-488 0
-489 0
-490 0
-492 0
-493 0
-494 0
-495 0
-496 0
-497 0
-498 0
-499 0
-503 0
-505 0
-506 0
-507 0
-508 0
-510 0
-512 0
-513 0
-515 0
-516 0
-518 0
-519 0
-520 0
-521 0
-525 0
-526 0
-33 -34 0
-33 -36 0
-33 -40 0
-33 -48 0
-34 -36 0
-34 -40 0
-34 -48 0
-36 -40 0
-36 -48 0
-40 -48 0
-33 -65 0
-33 -67 0
-33 -71 0
-33 -79 0
-65 -67 0
-65 -71 0
-65 -79 0
-67 -71 0
-67 -79 0
-71 -79 0
-34 -94 0
-34 -97 0
-34 -101 0
-34 -109 0
-94 -97 0
-94 -101 0
-94 -109 0
-97 -101 0
-97 -109 0
-101 -109 0
-65 -94 0
-65 -126 0
-65 -130 0
-65 -138 0
-94 -126 0
-94 -130 0
-94 -138 0
-126 -130 0
-126 -138 0
-130 -138 0
-36 -151 0
-36 -152 0
-36 -158 0
-36 -166 0
-151 -152 0
-151 -158 0
-151 -166 0
-152 -158 0
-152 -166 0
-158 -166 0
-67 -151 0
-67 -179 0
-67 -185 0
-67 -193 0
-151 -179 0
-151 -185 0
-151 -193 0
-179 -185 0
-179 -193 0
-185 -193 0
-97 -152 0
-97 -204 0
-97 -211 0
-97 -219 0
-152 -204 0
-152 -211 0
-152 -219 0
-204 -211 0
-204 -219 0
-211 -219 0
-126 -179 0
-126 -204 0
-126 -236 0
-126 -244 0
-179 -204 0
-179 -236 0
-179 -244 0
-204 -236 0
-204 -244 0
-236 -244 0
-40 -253 0
-40 -254 0
-40 -256 0
-40 -268 0
-253 -254 0
-253 -256 0
-253 -268 0
-254 -256 0
-254 -268 0
-256 -268 0
-71 -253 0
-71 -277 0
-71 -279 0
-71 -291 0
-253 -277 0
-253 -279 0
-253 -291 0
-277 -279 0
-277 -291 0
-279 -291 0
-101 -254 0
-101 -298 0
-101 -301 0
-101 -313 0
-254 -298 0
-254 -301 0
-254 -313 0
-298 -301 0
-298 -313 0
-301 -313 0
-130 -277 0
-130 -298 0
-130 -322 0
-130 -334 0
-277 -298 0
-277 -322 0
-277 -334 0
-298 -322 0
-298 -334 0
-322 -334 0
-158 -256 0
-158 -339 0
-158 -340 0
-158 -354 0
-256 -339 0
-256 -340 0
-256 -354 0
-339 -340 0
-339 -354 0
-340 -354 0
-185 -279 0
-185 -339 0
-185 -359 0
-185 -373 0
-279 -339 0
-279 -359 0
-279 -373 0
-339 -359 0
-339 -373 0
-359 -373 0
-211 -301 0
-211 -340 0
-211 -376 0
-211 -391 0
-301 -340 0
-301 -376 0
-301 -391 0
-340 -376 0
-340 -391 0
-376 -391 0
-236 -322 0
-236 -359 0
-236 -376 0
-236 -408 0
-322 -359 0
-322 -376 0
-322 -408 0
-359 -376 0
-359 -408 0
-376 -408 0
-48 -409 0
-48 -410 0
-48 -412 0
-48 -416 0
-409 -410 0
-409 -412 0
-409 -416 0
-410 -412 0
-410 -416 0
-412 -416 0
-79 -409 0
-79 -425 0
-79 -427 0
-79 -431 0
-409 -425 0
-409 -427 0
-409 -431 0
-425 -427 0
-425 -431 0
-427 -431 0
-109 -410 0
-109 -438 0
-109 -441 0
-109 -445 0
-410 -438 0
-410 -441 0
-410 -445 0
-438 -441 0
-438 -445 0
-441 -445 0
-138 -425 0
-138 -438 0
-138 -454 0
-138 -458 0
-425 -438 0
-425 -454 0
-425 -458 0
-438 -454 0
-438 -458 0
-454 -458 0
-166 -412 0
-166 -463 0
-166 -464 0
-166 -470 0
-412 -463 0
-412 -464 0
-412 -470 0
-463 -464 0
-463 -470 0
-464 -470 0
-193 -427 0
-193 -463 0
-193 -475 0
-193 -481 0
-427 -463 0
-427 -475 0
-427 -481 0
-463 -475 0
-463 -481 0
-475 -481 0
-219 -441 0
-219 -464 0
-219 -484 0
-219 -491 0
-441 -464 0
-441 -484 0
-441 -491 0
-464 -484 0
-464 -491 0
-484 -491 0
-244 -454 0
-244 -475 0
-244 -484 0
-244 -500 0
-454 -475 0
-454 -484 0
-454 -500 0
-475 -484 0
-475 -500 0
-484 -500 0
-268 -416 0
-268 -501 0
-268 -502 0
-268 -504 0
-416 -501 0
-416 -502 0
-416 -504 0
-501 -502 0
-501 -504 0
-502 -504 0
-291 -431 0
-291 -501 0
-291 -509 0
-291 -511 0
-431 -501 0
-431 -509 0
-431 -511 0
-501 -509 0
-501 -511 0
-509 -511 0
-313 -445 0
-313 -502 0
-313 -514 0
-313 -517 0
-445 -502 0
-445 -514 0
-445 -517 0
-502 -514 0
-502 -517 0
-514 -517 0
-334 -458 0
-334 -509 0
-334 -514 0
-334 -522 0
-458 -509 0
-458 -514 0
-458 -522 0
-509 -514 0
-509 -522 0
-514 -522 0
-354 -470 0
-354 -504 0
-354 -523 0
-354 -524 0
-470 -504 0
-470 -523 0
-470 -524 0
-504 -523 0
-504 -524 0
-523 -524 0
-373 -481 0
-373 -511 0
-373 -523 0
-373 -527 0
-481 -511 0
-481 -523 0
-481 -527 0
-511 -523 0
-511 -527 0
-523 -527 0
-391 -491 0
-391 -517 0
-391 -524 0
-391 -528 0
-491 -517 0
-491 -524 0
-491 -528 0
-517 -524 0
-517 -528 0
-524 -528 0
-408 -500 0
-408 -522 0
-408 -527 0
-408 -528 0
-500 -522 0
-500 -527 0
-500 -528 0
-522 -527 0
-522 -528 0
-527 -528 0
-1 33 34 36 40 48 0
-2 33 65 67 71 79 0
-3 34 94 97 101 109 0
-4 65 94 126 130 138 0
-5 36 151 152 158 166 0
-6 67 151 179 185 193 0
-7 97 152 204 211 219 0
-8 126 179 204 236 244 0
-9 40 253 254 256 268 0
-10 71 253 277 279 291 0
-11 101 254 298 301 313 0
-12 130 277 298 322 334 0
-13 158 256 339 340 354 0
-14 185 279 339 359 373 0
-15 211 301 340 376 391 0
-16 236 322 359 376 408 0
-17 48 409 410 412 416 0
-18 79 409 425 427 431 0
-19 109 410 438 441 445 0
-20 138 425 438 454 458 0
-21 166 412 463 464 470 0
-22 193 427 463 475 481 0
-23 219 441 464 484 491 0
-24 244 454 475 484 500 0
-25 268 416 501 502 504 0
-26 291 431 501 509 511 0
-27 313 445 502 514 517 0
-28 334 458 509 514 522 0
-29 354 470 504 523 524 0
-30 373 481 511 523 527 0
-31 391 491 517 524 528 0
-32 408 500 522 527 528 0
-33 0
-34 0
-36 0
-40 0
-48 0
1 2 0
1 3 0
1 5 0
1 9 0
1 17 0
2 4 0
2 6 0
2 10 0
2 18 0
3 4 0
3 7 0
3 11 0
3 19 0
4 8 0
4 12 0
4 20 0
5 6 0
5 7 0
5 13 0
5 21 0
6 8 0
6 14 0
6 22 0
7 8 0
7 15 0
7 23 0
8 16 0
8 24 0
9 10 0
9 11 0
9 13 0
9 25 0
10 12 0
10 14 0
10 26 0
11 12 0
11 15 0
11 27 0
12 16 0
12 28 0
13 14 0
13 15 0
13 29 0
14 16 0
14 30 0
15 16 0
15 31 0
16 32 0
17 18 0
17 19 0
17 21 0
17 25 0
18 20 0
18 22 0
18 26 0
19 20 0
19 23 0
19 27 0
20 24 0
20 28 0
21 22 0
21 23 0
21 29 0
22 24 0
22 30 0
23 24 0
23 31 0
24 32 0
25 26 0
25 27 0
25 29 0
26 28 0
26 30 0
27 28 0
27 31 0
28 32 0
29 30 0
29 31 0
30 32 0
31 32 0
